12 32 6 10
7 16 6 17 10 7 15 7 4 17 8 17 5 10 3 16 1 6 8 17 10 18 1 20 9 16 16 4 17 12 17 2 
12.92 11.46 14.51 8.77 5.16 9.53 0.29 15.27 0.49 12.81 4.58 10.01 9.82 0.18 3.71 3.64 13.07 9.9 8.29 8.09 0.1 7.87 10.94 9.23 2.56 4.27 4.32 10.68 5.98 3.98 9.39 13.92 
5.54 9.23 1.47 15.16 0.2 0.81 12.81 9.74 0.41 10.67 1.39 1.88 13.37 15.92 9.7 4.39 0.8 6.05 9.94 7.29 7.7 12.48 14.39 11.44 4.13 6.82 6.87 4.16 4.76 1.49 0.78 3.18 
9.14 12.14 5.02 0.95 12.23 12.2 15.22 9.84 7.95 2.43 5.49 12.6 1.58 4.75 4.06 10.84 9.82 4.66 8.86 9.94 3.36 4.89 10.47 3.13 10.33 0.9 3.69 9.96 3.84 3.23 0.2 0.02 
11.63 5.33 12.59 8.26 0.86 6.07 4.99 10.33 3.86 5.52 5.31 3.95 3.67 6.39 9.44 1.62 13.04 10.04 5.35 0.1 15.71 14.13 3.86 9.39 12.69 8.8 0.94 3.9 14.92 0.93 10.98 8.47 
7.47 1.73 10.31 11.04 4.28 0.14 14 8.95 12.4 6.54 14.22 12.92 13.53 11.97 2.34 15.13 12.86 4.57 1.38 7.13 0.41 5.64 5.33 10.04 7.37 12.98 2.52 7.57 14.5 10.39 5.28 9.58 
13.02 3.31 6.06 9.55 7.8 12.67 14.23 4.22 5.03 6.29 3.52 1.68 15.06 10.94 7.8 5.97 0.89 1.34 13.64 13.43 13.35 4.11 6.43 15.17 9.11 9.6 3.36 9.22 1.53 13.71 8.36 10.95 
8 8 8 8 8 8 8 8 8 8 8 8 8 8 8 8 8 8 8 8 8 8 8 8 8 8 8 8 8 8 8 8 
2.51 10.32 9.18 13.31 11.77 4.66 7.12 15.74 9.83 8.6 15.96 2.48 14.64 15.81 1.21 2.88 1.75 2.92 1.72 4.17 15.76 5.72 12.03 6.16 6.66 3.33 8.65 9.34 4.72 13.3 0.23 1.07 
1.34 9.49 6.01 1.03 6.38 7.16 10.21 15.97 8.53 12.83 7.32 6.12 13.61 6.52 1.84 2.09 8.79 5.37 5.85 11.78 15.62 13.77 14.27 13.9 3.08 1.05 14.03 15.1 2.01 1.69 9.75 8.84 
1.2 9.26 1.29 13.83 12.77 14.79 9.62 9.2 1.17 14.89 10.55 6.81 13.95 8.54 0.79 9.87 4.96 9.5 4.87 8.34 1.29 11.45 13.89 10.39 5.92 8.26 3.16 9.05 14.44 3.17 14.29 13.11 
10.81 13.88 5.83 15.45 6.14 15.76 15.86 13.26 3.8 2.4 6.17 12.93 6.83 3.38 13.12 9.41 3.03 1.83 6.89 14.62 14.85 9.26 0.63 7.4 5.93 5.11 1.81 6.75 3.43 2.51 12.83 13.49 
2.6 10.36 3.89 7.31 0.71 3.75 12.72 9.18 3.13 12.83 13.42 13.63 10.7 4.55 9.52 15.56 7.63 9.19 0.68 10.59 4.03 13.67 7.38 5.78 4.31 13.63 15.95 4.09 1.4 8.05 5.34 1.59 
1 1 1 1 1 1 1 1 1 1 1 1 1 1 1 1 1 1 1 1 1 1 1 1 1 1 1 1 1 1 1 1 
1 1 1 1 1 1 1 1 1 1 1 1 1 1 1 1 1 1 1 1 1 1 1 1 1 1 1 1 1 1 1 1 
1 1 1 1 1 1 1 1 1 1 1 1 1 1 1 1 1 1 1 1 1 1 1 1 1 1 1 1 1 1 1 1 
1 1 1 1 1 1 1 1 1 1 1 1 1 1 1 1 1 1 1 1 1 1 1 1 1 1 1 1 1 1 1 1 
1 1 1 1 1 1 1 1 1 1 1 1 1 1 1 1 1 1 1 1 1 1 1 1 1 1 1 1 1 1 1 1 
1 1 1 1 1 1 1 1 1 1 1 1 1 1 1 1 1 1 1 1 1 1 1 1 1 1 1 1 1 1 1 1 
1 1 1 1 1 1 1 1 1 1 1 1 1 1 1 1 1 1 1 1 1 1 1 1 1 1 1 1 1 1 1 1 
1 1 1 1 1 1 1 1 1 1 1 1 1 1 1 1 1 1 1 1 1 1 1 1 1 1 1 1 1 1 1 1 
1 1 1 1 1 1 1 1 1 1 1 1 1 1 1 1 1 1 1 1 1 1 1 1 1 1 1 1 1 1 1 1 
1 1 1 1 1 1 1 1 1 1 1 1 1 1 1 1 1 1 1 1 1 1 1 1 1 1 1 1 1 1 1 1 
1 1 1 1 1 1 1 1 1 1 1 1 1 1 1 1 1 1 1 1 1 1 1 1 1 1 1 1 1 1 1 1 
1 1 1 1 1 1 1 1 1 1 1 1 1 1 1 1 1 1 1 1 1 1 1 1 1 1 1 1 1 1 1 1 
0.01 0.01 0.01 0.01 0.01 0.01 0.01 0.01 0.01 0.01 0.01 0.01 0.01 0.01 0.01 0.01 0.01 0.01 0.01 0.01 0.01 0.01 0.01 0.01 0.01 0.01 0.01 0.01 0.01 0.01 0.01 0.01 
0.02 0.02 0.02 0.02 0.02 0.02 0.02 0.02 0.02 0.02 0.02 0.02 0.02 0.02 0.02 0.02 0.02 0.02 0.02 0.02 0.02 0.02 0.02 0.02 0.02 0.02 0.02 0.02 0.02 0.02 0.02 0.02 
0.03 0.03 0.03 0.03 0.03 0.03 0.03 0.03 0.03 0.03 0.03 0.03 0.03 0.03 0.03 0.03 0.03 0.03 0.03 0.03 0.03 0.03 0.03 0.03 0.03 0.03 0.03 0.03 0.03 0.03 0.03 0.03 
0.04 0.04 0.04 0.04 0.04 0.04 0.04 0.04 0.04 0.04 0.04 0.04 0.04 0.04 0.04 0.04 0.04 0.04 0.04 0.04 0.04 0.04 0.04 0.04 0.04 0.04 0.04 0.04 0.04 0.04 0.04 0.04 
0.05 0.05 0.05 0.05 0.05 0.05 0.05 0.05 0.05 0.05 0.05 0.05 0.05 0.05 0.05 0.05 0.05 0.05 0.05 0.05 0.05 0.05 0.05 0.05 0.05 0.05 0.05 0.05 0.05 0.05 0.05 0.05 
0.06 0.06 0.06 0.06 0.06 0.06 0.06 0.06 0.06 0.06 0.06 0.06 0.06 0.06 0.06 0.06 0.06 0.06 0.06 0.06 0.06 0.06 0.06 0.06 0.06 0.06 0.06 0.06 0.06 0.06 0.06 0.06 
0.07 0.07 0.07 0.07 0.07 0.07 0.07 0.07 0.07 0.07 0.07 0.07 0.07 0.07 0.07 0.07 0.07 0.07 0.07 0.07 0.07 0.07 0.07 0.07 0.07 0.07 0.07 0.07 0.07 0.07 0.07 0.07 
0.2 0.2 0.2 0.2 0.2 0.2 0.2 0.2 0.2 0.2 0.2 0.2 0.2 0.2 0.2 0.2 0.2 0.2 0.2 0.2 0.2 0.2 0.2 0.2 0.2 0.2 0.2 0.2 0.2 0.2 0.2 0.2 
0.4 0.4 0.4 0.4 0.4 0.4 0.4 0.4 0.4 0.4 0.4 0.4 0.4 0.4 0.4 0.4 0.4 0.4 0.4 0.4 0.4 0.4 0.4 0.4 0.4 0.4 0.4 0.4 0.4 0.4 0.4 0.4 
0.6 0.6 0.6 0.6 0.6 0.6 0.6 0.6 0.6 0.6 0.6 0.6 0.6 0.6 0.6 0.6 0.6 0.6 0.6 0.6 0.6 0.6 0.6 0.6 0.6 0.6 0.6 0.6 0.6 0.6 0.6 0.6 
0.8 0.8 0.8 0.8 0.8 0.8 0.8 0.8 0.8 0.8 0.8 0.8 0.8 0.8 0.8 0.8 0.8 0.8 0.8 0.8 0.8 0.8 0.8 0.8 0.8 0.8 0.8 0.8 0.8 0.8 0.8 0.8 
1 1 1 1 1 1 1 1 1 1 1 1 1 1 1 1 1 1 1 1 1 1 1 1 1 1 1 1 1 1 1 1 
